
<<< setup


<<< generate

CPXPARAM_TimeLimit                               9999
Tried aggregator 1 time.
MIP Presolve eliminated 29 rows and 29 columns.
Reduced MIP has 961 rows, 1771 columns, and 5254 nonzeros.
Reduced MIP has 900 binaries, 871 generals, 0 SOSs, and 0 indicators.
Presolve time = 0,00 sec. (2,90 ticks)
Probing fixed 29 vars, tightened 0 bounds.
Probing time = 0,03 sec. (10,57 ticks)
Cover probing fixed 0 vars, tightened 841 bounds.
Tried aggregator 1 time.
MIP Presolve eliminated 31 rows and 59 columns.
MIP Presolve modified 842 coefficients.
Reduced MIP has 930 rows, 1712 columns, and 5106 nonzeros.
Reduced MIP has 871 binaries, 841 generals, 0 SOSs, and 0 indicators.
Presolve time = 0,01 sec. (5,08 ticks)
Probing time = 0,01 sec. (3,18 ticks)
Clique table members: 60.
MIP emphasis: balance optimality and feasibility.
MIP search method: dynamic search.
Parallel mode: deterministic, using up to 4 threads.
Root relaxation solution time = 0,02 sec. (16,44 ticks)

        Nodes                                         Cuts/
   Node  Left     Objective  IInf  Best Integer    Best Bound    ItCnt     Gap

*     0+    0                          145,4181        0,0000           100,00%
      0     0       32,5988    58      145,4181       32,5988      510   77,58%
*     0+    0                          105,8905       32,5988            69,21%
      0     0       40,8434   104      105,8905      Cuts: 60      812   61,43%
      0     0       41,1628   127      105,8905      Cuts: 33      946   61,13%
      0     0       41,5595   130      105,8905      Cuts: 14     1045   60,75%
      0     0       41,7148   139      105,8905      Cuts: 16     1155   60,61%
      0     0       41,7990   141      105,8905      Cuts: 19     1231   60,53%
      0     0       41,8086   135      105,8905       Cuts: 6     1285   60,52%
      0     0       41,8141   137      105,8905       Cuts: 8     1297   60,51%
      0     0       41,8197   145      105,8905       Cuts: 9     1319   60,51%
      0     0       41,8204   142      105,8905   Flowcuts: 2     1322   60,51%
      0     0       41,8204   134      105,8905   Flowcuts: 1     1324   60,51%
*     0+    0                           65,9471       41,8204            36,58%
*     0+    0                           64,1879       41,8204            34,85%
      0     2       41,8204   134       64,1879       41,8204     1324   34,85%
Elapsed time = 1,32 sec. (477,24 ticks, tree = 0,01 MB, solutions = 4)
*    22+    3                           60,4406       41,9602            30,58%
    180   145       44,3949    37       60,4406       41,9602    15112   30,58%
    517   426       44,6194    74       60,4406       41,9602    37052   30,58%
*   864   656      integral     0       59,4785       42,2359    51201   28,99%
*  1083+  799                           55,0931       42,6827            22,53%
*  1274+  581                           52,0796       46,7367            10,26%
*  1274+  386                           50,9729       49,1483             3,58%
*  1274+  257                           50,8323       50,0215             1,60%

GUB cover cuts applied:  5
Cover cuts applied:  7
Implied bound cuts applied:  16
Flow cuts applied:  80
Mixed integer rounding cuts applied:  23
Zero-half cuts applied:  8
Multi commodity flow cuts applied:  5
Lift and project cuts applied:  42
Gomory fractional cuts applied:  7

Root node processing (before b&c):
  Real time             =    1,29 sec. (476,60 ticks)
Parallel b&c, 4 threads:
  Real time             =    4,02 sec. (1614,84 ticks)
  Sync time (average)   =    0,62 sec.
  Wait time (average)   =    0,00 sec.
                          ------------
Total (root+branch&cut) =    5,32 sec. (2091,44 ticks)

<<< solve


OBJECTIVE: 50.83231
12/18/2018 23:58:22 702
solving time ~= 5326.004150391
Done
 [[0 0 0 0 0 2 0 0 0 0 0 0 0 0 0 0 0 0 0 0 0 0 0 0 0 0 0 0 0 0]
         [3 0 0 0 0 0 0 0 0 0 0 0 0 0 0 0 0 0 0 0 0 0 0 0 0 0 0 0 0 0]
         [0 0 0 0 0 0 5 0 0 0 0 0 0 0 0 0 0 0 0 0 0 0 0 0 0 0 0 0 0 0]
         [0 0 0 0 0 0 0 7 0 0 0 0 0 0 0 0 0 0 0 0 0 0 0 0 0 0 0 0 0 0]
         [0 0 0 8 0 0 0 0 0 0 0 0 0 0 0 0 0 0 0 0 0 0 0 0 0 0 0 0 0 0]
         [0 0 0 0 0 0 0 0 0 0 0 0 0 0 1 0 0 0 0 0 0 0 0 0 0 0 0 0 0 0]
         [0 4 0 0 0 0 0 0 0 0 0 0 0 0 0 0 0 0 0 0 0 0 0 0 0 0 0 0 0 0]
         [0 0 6 0 0 0 0 0 0 0 0 0 0 0 0 0 0 0 0 0 0 0 0 0 0 0 0 0 0 0]
         [0 0 0 0 9 0 0 0 0 0 0 0 0 0 0 0 0 0 0 0 0 0 0 0 0 0 0 0 0 0]
         [0 0 0 0 0 0 0 0 10 0 0 0 0 0 0 0 0 0 0 0 0 0 0 0 0 0 0 0 0 0]
         [0 0 0 0 0 0 0 0 0 11 0 0 0 0 0 0 0 0 0 0 0 0 0 0 0 0 0 0 0 0]
         [0 0 0 0 0 0 0 0 0 0 0 0 0 0 0 29 0 0 0 0 0 0 0 0 0 0 0 0 0 0]
         [0 0 0 0 0 0 0 0 0 0 0 0 0 0 0 0 0 14 0 0 0 0 0 0 0 0 0 0 0 0]
         [0 0 0 0 0 0 0 0 0 0 12 0 0 0 0 0 0 0 0 0 0 0 0 0 0 0 0 0 0 0]
         [0 0 0 0 0 0 0 0 0 0 0 30 0 0 0 0 0 0 0 0 0 0 0 0 0 0 0 0 0 0]
         [0 0 0 0 0 0 0 0 0 0 0 0 0 0 0 0 0 0 0 28 0 0 0 0 0 0 0 0 0 0]
         [0 0 0 0 0 0 0 0 0 0 0 0 15 0 0 0 0 0 0 0 0 0 0 0 0 0 0 0 0 0]
         [0 0 0 0 0 0 0 0 0 0 0 0 0 13 0 0 0 0 0 0 0 0 0 0 0 0 0 0 0 0]
         [0 0 0 0 0 0 0 0 0 0 0 0 0 0 0 0 0 0 0 0 0 26 0 0 0 0 0 0 0 0]
         [0 0 0 0 0 0 0 0 0 0 0 0 0 0 0 0 0 0 27 0 0 0 0 0 0 0 0 0 0 0]
         [0 0 0 0 0 0 0 0 0 0 0 0 0 0 0 0 0 0 0 0 0 0 0 0 0 0 0 0 0 18]
         [0 0 0 0 0 0 0 0 0 0 0 0 0 0 0 0 0 0 0 0 0 0 0 0 0 0 25 0 0 0]
         [0 0 0 0 0 0 0 0 0 0 0 0 0 0 0 0 0 0 0 0 0 0 0 0 0 0 0 0 21 0]
         [0 0 0 0 0 0 0 0 0 0 0 0 0 0 0 0 0 0 0 0 19 0 0 0 0 0 0 0 0 0]
         [0 0 0 0 0 0 0 0 0 0 0 0 0 0 0 0 16 0 0 0 0 0 0 0 0 0 0 0 0 0]
         [0 0 0 0 0 0 0 0 0 0 0 0 0 0 0 0 0 0 0 0 0 0 0 0 0 0 0 23 0 0]
         [0 0 0 0 0 0 0 0 0 0 0 0 0 0 0 0 0 0 0 0 0 0 0 0 0 24 0 0 0 0]
         [0 0 0 0 0 0 0 0 0 0 0 0 0 0 0 0 0 0 0 0 0 0 22 0 0 0 0 0 0 0]
         [0 0 0 0 0 0 0 0 0 0 0 0 0 0 0 0 0 0 0 0 0 0 0 20 0 0 0 0 0 0]
         [0 0 0 0 0 0 0 0 0 0 0 0 0 0 0 0 0 0 0 0 0 0 0 0 17 0 0 0 0 0]]

<<< post process


<<< done

